nServices=10;
nDrivers=10;
nBuses=10;
startingTime=[60 145 160 31 1 65 31 156 172 112];
durationTime=[18 15 13 15 17 19 19 18 14 13];
durationDist=[34 36 22 20 32 46 33 40 36 54];
passangers=[22 4 13 23 2 9 23 5 18 19];
capacity=[30 16 14 13 11 28 21 14 24 11];
costTime=[7 8 10 10 8 8 9 9 7 6];
costDist=[4 3 6 2 4 3 4 4 6 5];
maxTime=[26 55 42 36 26 36 54 36 42 23];
costBM=[5 6 7 5 8 6 5 5 5 6];
costEM=[10 8 11 12 9 11 10 12 9 8];
BM=[14 15 10 16 16 11 15 15 15 10];
